# Node Net
390   1
280   1
397   1
 13   1
 18   2
141   2
 16   2
220   2
201   3
261   3
341   3
 80   3
384   4
385   4
384   4
120   5
389   5
  9   5
388   6
398   6
  3   6
  2   7
 40   7
 12   8
121   8
386   9
300   9
